p cnf 548
-6 -174
-7 -177
-8 -180
-9 -183
-10 -186
-11 187
-12 188
-13 189
-14 190
-15 191
-16 192
-17 193
-18 194
-19 -7
-19 -8
7 8 19
-20 -9
-20 -10
9 10 20
-21 -11
-21 -12
11 12 21
-22 -13
-22 -14
13 14 22
-23 -15
-23 -16
15 16 23
-24 -17
-24 -18
17 18 24
-25 19
-25 20
-19 -20 25
-26 21
-26 22
-21 -22 26
-27 23
-27 24
-23 -24 27
-28 25
-28 26
-25 -26 28
-29 27
-29 28
-27 -28 29
-30 -6
-30 7
6 -7 30
-31 6
-31 -7
-6 7 31
-32 -30
-32 -31
30 31 32
-33 6
-33 7
-6 -7 33
-34 -6
-34 -32
6 32 34
-35 6
-35 32
-6 -32 35
-36 -34
-36 -35
34 35 36
-37 6
-37 -32
-6 32 37
-38 -33
-38 -37
33 37 38
-39 -7
-39 8
7 -8 39
-40 7
-40 -8
-7 8 40
-41 -39
-41 -40
39 40 41
-42 7
-42 8
-7 -8 42
-43 38
-43 -41
-38 41 43
-44 -38
-44 41
38 -41 44
-45 -43
-45 -44
43 44 45
-46 -38
-46 -41
38 41 46
-47 -42
-47 -46
42 46 47
-48 -8
-48 9
8 -9 48
-49 8
-49 -9
-8 9 49
-50 -48
-50 -49
48 49 50
-51 8
-51 9
-8 -9 51
-52 47
-52 -50
-47 50 52
-53 -47
-53 50
47 -50 53
-54 -52
-54 -53
52 53 54
-55 -47
-55 -50
47 50 55
-56 -51
-56 -55
51 55 56
-57 -9
-57 10
9 -10 57
-58 9
-58 -10
-9 10 58
-59 -57
-59 -58
57 58 59
-60 9
-60 10
-9 -10 60
-61 56
-61 -59
-56 59 61
-62 -56
-62 59
56 -59 62
-63 -61
-63 -62
61 62 63
-64 -56
-64 -59
56 59 64
-65 -60
-65 -64
60 64 65
-66 -10
-66 11
10 -11 66
-67 10
-67 -11
-10 11 67
-68 -66
-68 -67
66 67 68
-69 10
-69 11
-10 -11 69
-70 65
-70 -68
-65 68 70
-71 -65
-71 68
65 -68 71
-72 -70
-72 -71
70 71 72
-73 -65
-73 -68
65 68 73
-74 -69
-74 -73
69 73 74
-75 -11
-75 12
11 -12 75
-76 11
-76 -12
-11 12 76
-77 -75
-77 -76
75 76 77
-78 11
-78 12
-11 -12 78
-79 74
-79 -77
-74 77 79
-80 -74
-80 77
74 -77 80
-81 -79
-81 -80
79 80 81
-82 -74
-82 -77
74 77 82
-83 -78
-83 -82
78 82 83
-84 -12
-84 13
12 -13 84
-85 12
-85 -13
-12 13 85
-86 -84
-86 -85
84 85 86
-87 12
-87 13
-12 -13 87
-88 83
-88 -86
-83 86 88
-89 -83
-89 86
83 -86 89
-90 -88
-90 -89
88 89 90
-91 -83
-91 -86
83 86 91
-92 -87
-92 -91
87 91 92
-93 -13
-93 14
13 -14 93
-94 13
-94 -14
-13 14 94
-95 -93
-95 -94
93 94 95
-96 13
-96 14
-13 -14 96
-97 92
-97 -95
-92 95 97
-98 -92
-98 95
92 -95 98
-99 -97
-99 -98
97 98 99
-100 -92
-100 -95
92 95 100
-101 -96
-101 -100
96 100 101
-102 -14
-102 15
14 -15 102
-103 14
-103 -15
-14 15 103
-104 -102
-104 -103
102 103 104
-105 14
-105 15
-14 -15 105
-106 101
-106 -104
-101 104 106
-107 -101
-107 104
101 -104 107
-108 -106
-108 -107
106 107 108
-109 -101
-109 -104
101 104 109
-110 -105
-110 -109
105 109 110
-111 -15
-111 16
15 -16 111
-112 15
-112 -16
-15 16 112
-113 -111
-113 -112
111 112 113
-114 15
-114 16
-15 -16 114
-115 110
-115 -113
-110 113 115
-116 -110
-116 113
110 -113 116
-117 -115
-117 -116
115 116 117
-118 -110
-118 -113
110 113 118
-119 -114
-119 -118
114 118 119
-120 -16
-120 17
16 -17 120
-121 16
-121 -17
-16 17 121
-122 -120
-122 -121
120 121 122
-123 16
-123 17
-16 -17 123
-124 119
-124 -122
-119 122 124
-125 -119
-125 122
119 -122 125
-126 -124
-126 -125
124 125 126
-127 -119
-127 -122
119 122 127
-128 -123
-128 -127
123 127 128
-129 -17
-129 18
17 -18 129
-130 17
-130 -18
-17 18 130
-131 -129
-131 -130
129 130 131
-132 17
-132 18
-17 -18 132
-133 128
-133 -131
-128 131 133
-134 -128
-134 131
128 -131 134
-135 -133
-135 -134
133 134 135
-136 -128
-136 -131
128 131 136
-137 -132
-137 -136
132 136 137
-138 6
-138 -36
-6 36 138
-139 -6
-139 8
6 -8 139
-140 -138
-140 -139
138 139 140
-141 6
-141 -45
-6 45 141
-142 -6
-142 9
6 -9 142
-143 -141
-143 -142
141 142 143
-144 6
-144 -54
-6 54 144
-145 -6
-145 10
6 -10 145
-146 -144
-146 -145
144 145 146
-147 6
-147 -63
-6 63 147
-148 -6
-148 11
6 -11 148
-149 -147
-149 -148
147 148 149
-150 6
-150 -72
-6 72 150
-151 -6
-151 12
6 -12 151
-152 -150
-152 -151
150 151 152
-153 6
-153 -81
-6 81 153
-154 -6
-154 13
6 -13 154
-155 -153
-155 -154
153 154 155
-156 6
-156 -90
-6 90 156
-157 -6
-157 14
6 -14 157
-158 -156
-158 -157
156 157 158
-159 6
-159 -99
-6 99 159
-160 -6
-160 15
6 -15 160
-161 -159
-161 -160
159 160 161
-162 6
-162 -108
-6 108 162
-163 -6
-163 16
6 -16 163
-164 -162
-164 -163
162 163 164
-165 6
-165 -117
-6 117 165
-166 -6
-166 17
6 -17 166
-167 -165
-167 -166
165 166 167
-168 6
-168 -126
-6 126 168
-169 -6
-169 18
6 -18 169
-170 -168
-170 -169
168 169 170
-171 6
-171 -135
-6 135 171
-172 1
-172 29
-1 -29 172
-173 -29
-173 30
29 -30 173
-174 -172
-174 -173
172 173 174
-175 2
-175 29
-2 -29 175
-176 -29
-176 -140
29 140 176
-177 -175
-177 -176
175 176 177
-178 3
-178 29
-3 -29 178
-179 -29
-179 -143
29 143 179
-180 -178
-180 -179
178 179 180
-181 4
-181 29
-4 -29 181
-182 -29
-182 -146
29 146 182
-183 -181
-183 -182
181 182 183
-184 5
-184 29
-5 -29 184
-185 -29
-185 -149
29 149 185
-186 -184
-186 -185
184 185 186
-187 -29
-187 -152
29 152 187
-188 -29
-188 -155
29 155 188
-189 -29
-189 -158
29 158 189
-190 -29
-190 -161
29 161 190
-191 -29
-191 -164
29 164 191
-192 -29
-192 -167
29 167 192
-193 -29
-193 -170
29 170 193
-194 -29
-194 171
29 -171 194
-195 -18
-195 137
18 -137 195
-196 6
-196 -195
-6 195 196
196
